set I := lat pat;
set J := ett sem tub con;

param maxNumProd := 7;

param P := 
ett 11
sem 70
tub 18
con 145;
#ricordarsi che gli insiemi non sono ordinati
#dunque possiamo mettere le coppie
#[nome indice - valore]
#si ricordi che gli spazi vengono ignorati; si può scrivere in linea singola

param Q := lat 3000    pat 5000;

param A := lat ett 1   latt sem 7   latt tub 0    lat con 10   
#prima riga: stiamo guardando i vincoli vedendo quanto vale xL
pat sem 0   pat ett 1   pat tub 3   pat con 20;
#seconda riga: stiamo guardando i vincoli vedendo quanto vale xP